 vasp.5.3.3.4 18Dez12 (build Jun 09 2015 23:14:47) complex

 executed on   half-orig-parallel date 2019.07.24  21:00:50

 INCAR:
 POTCAR:    PAW Si 02Apr1999

 POTCAR:    PAW Si 02Apr1999
   VRHFIN =Si: s2p2

   TITEL  = PAW Si 02Apr1999
   POMASS =   28.085; ZVAL   =    4.000    mass and valenz
   ENMAX  =  245.704; ENMIN  =  184.278 eV

  PAW Si 02Apr1999                      :

 POSCAR: Si
  positions in cartesian coordinates
 exchange correlation table for  LEXCH =        2
   RHO(1)=    0.500       N(1)  =     2000
   RHO(2)=  100.500       N(2)  =     4000

 ion  position               nearest neighbor table
   1  0.000  0.000  0.000-   2 2.35   2 2.35   2 2.35   2 2.35
   2  0.250  0.250  0.250-   1 2.35   1 2.35   1 2.35   1 2.35

IMPORTANT INFORMATION: All symmetrisations will be switched off!
NOSYMM: (Re-)initialisation of all symmetry stuff for point group C_1.

 KPOINTS: KPOINTS created by Atomic Simulation Env
  k-points in reciprocal lattice
Space group operators:
 irot       det(A)        alpha          n_x          n_y          n_z        tau_x        tau_y        tau_z
    1     1.000000     0.000001     1.000000     0.000000     0.000000     0.000000     0.000000     0.000000

 I would recommend the setting:
   dimension x,y,z NGX =    15 NGY =   15 NGZ =   15
 SYSTEM =  unknown system
 POSCAR =  Si

 Startparameter for this run:
   NWRITE =      2    write-flag & timer
   PREC   = normal    normal or accurate (medium, high low for compatibility)
   ISTART =      1    job   : 0-new  1-cont  2-samecut
   ICHARG =     11    charge: 1-file 2-atom 10-const
   ISPIN  =      1    spin polarized calculation?
   LNONCOLLINEAR =      F non collinear calculations
   LSORBIT =      F    spin-orbit coupling
   INIWAV =      1    electr: 0-lowe 1-rand  2-diag
   LASPH  =      F    aspherical Exc in radial PAW
   METAGGA=      F    non-selfconsistent MetaGGA calc.

 Electronic Relaxation 1
   ENCUT  =  245.7 eV  18.06 Ry    4.25 a.u.   4.91  4.91  4.91*2*pi/ulx,y,z
   ENINI  =  245.7     initial cutoff
   ENAUG  =  322.1 eV  augmentation charge cutoff
   NELM   =     60;   NELMIN=  2; NELMDL=  0     # of ELM steps
   EDIFF  = 0.1E-03   stopping-criterion for ELM
   LREAL  =      F    real-space projection
   NLSPLINE    = F    spline interpolate recip. space projectors
   LCOMPAT=      F    compatible to vasp.4.4
   GGA_COMPAT  = T    GGA compatible to vasp.4.4-vasp.4.6
   LMAXPAW     = -100 max onsite density
   LMAXMIX     =    2 max onsite mixed and CHGCAR
   VOSKOWN=      0    Vosko Wilk Nusair interpolation
   ROPT   =    0.00000
 Ionic relaxation
   EDIFFG = 0.1E-02   stopping-criterion for IOM
   NSW    =      0    number of steps for IOM
   NBLOCK =      1;   KBLOCK =      1    inner block; outer block
   IBRION =     -1    ionic relax: 0-MD 1-quasi-New 2-CG
   NFREE  =      0    steps in history (QN), initial steepest desc. (CG)
   ISIF   =      2    stress and relaxation
   IWAVPR =     10    prediction:  0-non 1-charg 2-wave 3-comb
   ISYM   =      0    0-nonsym 1-usesym 2-fastsym
   LCORR  =      T    Harris-Foulkes like correction to forces

   POTIM  = 0.5000    time-step for ionic-motion
   TEIN   =    0.0    initial temperature
   TEBEG  =    0.0;   TEEND  =   0.0 temperature during run
   SMASS  =  -3.00    Nose mass-parameter (am)
   estimated Nose-frequenzy (Omega)   =  0.10E-29 period in steps =****** mass=  -0.337E-27a.u.
   SCALEE = 1.0000    scale energy and forces
   NPACO  =    256;   APACO  = 16.0  distance and # of slots for P.C.
   PSTRESS=    0.0 pullay stress

  Mass of Ions in am
   POMASS =  28.09
  Ionic Valenz
   ZVAL   =   4.00
  Atomic Wigner-Seitz radii
  virtual crystal weights
   VCA    =   1.00
   NELECT =       8.0000    total number of electrons
   NUPDOWN=      -1.0000    fix difference up-down

 DOS related values:
   EMIN   =  10.00;   EMAX   =-10.00  energy-range for DOS
   EFERMI =   0.00
   ISMEAR =     1;   SIGMA  =   0.20  broadening in eV -4-tet -1-fermi 0-gaus

 Electronic relaxation 2 (details)
   IALGO  =     38    algorithm
   LDIAG  =      T    sub-space diagonalisation (order eigenvalues)
   LSUBROT=      T    optimize rotation matrix (better conditioning)
   TURBO    =      0    0=normal 1=particle mesh
   IRESTART =      0    0=no restart 2=restart with 2 vectors
   NREBOOT  =      0    no. of reboots
   NMIN     =      0    reboot dimension
   EREF     =   0.00    reference energy to select bands
   IMIX   =      4    mixing-type and parameters
     AMIX     =   0.40;   BMIX     =  1.00
     AMIX_MAG =   1.60;   BMIX_MAG =  1.00
     AMIN     =   0.10
     WC   =   100.;   INIMIX=   1;  MIXPRE=   1;  MAXMIX= -45

 Intra band minimization:
   WEIMIN = 0.0000     energy-eigenvalue tresh-hold
   EBREAK =  0.16E-05  absolut break condition
   DEPER  =   0.30     relativ break condition

   TIME   =   0.40     timestep for ELM

  volume/ion in A,a.u.               =      20.01       135.05
  Fermi-wavevector in a.u.,A,eV,Ry     =   0.957176  1.808800 12.465458  0.916185
  Thomas-Fermi vector in A             =   2.086170

 Write flags
   LWAVE  =      T    write WAVECAR
   LCHARG =      T    write CHGCAR
   LVTOT  =      F    write LOCPOT, total local potential
   LVHAR  =      F    write LOCPOT, Hartree potential only
   LELF   =      F    write electronic localiz. function (ELF)
   LORBIT =      0    0 simple, 1 ext, 2 COOP (PROOUT)

 Dipole corrections
   LMONO  =      F    monopole corrections only (constant potential shift)
   LDIPOL =      F    correct potential (dipole corrections)
   IDIPOL =      0    1-x, 2-y, 3-z, 4-all directions
   EPSILON=  1.0000000 bulk dielectric constant

 Exchange correlation treatment:
   GGA     =    --    GGA type
   VOSKOWN=      0    Vosko Wilk Nusair interpolation
   LHFCALC =     F    Hartree Fock is set to
   LHFONE  =     F    Hartree Fock one center treatment
   AEXX    =    0.0000 exact exchange contribution

 Linear response parameters
   LEPSILON=     F    determine dielectric tensor
   LRPA    =     F    only Hartree local field effects (RPA)
   LNABLA  =     F    use nabla operator in PAW spheres
   LVEL    =     F    velocity operator in full k-point grid
   LINTERFAST=   F  fast interpolation
   KINTER  =     0    interpolate to denser k-point grid
   CSHIFT  =0.1000    complex shift for real part using Kramers Kronig
   OMEGAMAX=  -1.0    maximum frequency
   DEG_THRESHOLD= 0.2000000E-02 threshold for treating states as degnerate
   RTIME   =    0.100 relaxation time in fs

 Orbital magnetization related:
   ORBITALMAG=     F  switch on orbital magnetization
   LCHIMAG   =     F  perturbation theory with respect to B field
   DQ        =  0.001000  dq finite difference perturbation B field

 Static calculation
 charge density and potential remain constant during run
 non-spin polarized calculation
 Variant of blocked Davidson
 Davidson routine will perform the subspace rotation
 perform sub-space diagonalisation
    after iterative eigenvector-optimisation
 no mixing
 using additional bands           12
 reciprocal scheme for non local part
 use partial core corrections
 calculate Harris-corrections to forces
   (improved forces if not selfconsistent)
 use of overlap-Matrix (Vanderbilt PP)
 Methfessel and Paxton  Order N= 1 SIGMA  =   0.20

  energy-cutoff  :      245.70
  volume of cell :       40.03
      direct lattice vectors                 reciprocal lattice vectors
     0.000000000  2.715000000  2.715000000    -0.184162063  0.184162063  0.184162063
     2.715000000  0.000000000  2.715000000     0.184162063 -0.184162063  0.184162063
     2.715000000  2.715000000  0.000000000     0.184162063  0.184162063 -0.184162063

  length of vectors
     3.839589822  3.839589822  3.839589822     0.318978049  0.318978049  0.318978049

 old parameters found on file WAVECAR:
  energy-cutoff  :      245.70
  volume of cell :       40.03
      direct lattice vectors                 reciprocal lattice vectors
     0.000000000  2.715000000  2.715000000    -0.184162063  0.184162063  0.184162063
     2.715000000  0.000000000  2.715000000     0.184162063 -0.184162063  0.184162063
     2.715000000  2.715000000  0.000000000     0.184162063  0.184162063 -0.184162063

  length of vectors

 k-points in units of 2pi/SCALE and weight: KPOINTS created by Atomic Simulation Env
   0.09208103  0.18416206  0.00000000       0.033
   0.08594217  0.17188471  0.00000000       0.033
   0.07980368  0.15960700  0.00000000       0.033
   0.07366483  0.14732965  0.00000000       0.033
   0.06752597  0.13505230 -0.00000000       0.033
   0.06138748  0.12277459  0.00000000       0.033
   0.05524862  0.11049724 -0.00000000       0.033
   0.04910976  0.09821989 -0.00000000       0.033
   0.04297127  0.08594217  0.00000000       0.033
   0.03683241  0.07366483  0.00000000       0.033
   0.03069355  0.06138748  0.00000000       0.033
   0.02455506  0.04910976  0.00000000       0.033
   0.01841621  0.03683241  0.00000000       0.033
   0.01227735  0.02455506  0.00000000       0.033
   0.00613886  0.01227735  0.00000000       0.033
   0.00000000  0.00000000  0.00000000       0.033
  -0.00000000  0.01315433  0.00000000       0.033
  -0.00000000  0.02630902  0.00000000       0.033
  -0.00000000  0.03946335  0.00000000       0.033
   0.00000000  0.05261768 -0.00000000       0.033
  -0.00000000  0.06577201  0.00000000       0.033
  -0.00000000  0.07892670  0.00000000       0.033
   0.00000000  0.09208103  0.00000000       0.033
   0.00000000  0.10523536 -0.00000000       0.033
  -0.00000000  0.11839006  0.00000000       0.033
  -0.00000000  0.13154438  0.00000000       0.033
   0.00000000  0.14469871 -0.00000000       0.033
   0.00000000  0.15785304 -0.00000000       0.033
   0.00000000  0.17100773 -0.00000000       0.033
   0.00000000  0.18416206  0.00000000       0.033

 k-points in reciprocal lattice and weights: KPOINTS created by Atomic Simulation Env
   0.50000000  0.25000000  0.75000000       0.033
   0.46666700  0.23333300  0.70000000       0.033
   0.43333300  0.21666700  0.65000000       0.033
   0.40000000  0.20000000  0.60000000       0.033
   0.36666700  0.18333300  0.55000000       0.033
   0.33333300  0.16666700  0.50000000       0.033
   0.30000000  0.15000000  0.45000000       0.033
   0.26666700  0.13333300  0.40000000       0.033
   0.23333300  0.11666700  0.35000000       0.033
   0.20000000  0.10000000  0.30000000       0.033
   0.16666700  0.08333300  0.25000000       0.033
   0.13333300  0.06666700  0.20000000       0.033
   0.10000000  0.05000000  0.15000000       0.033
   0.06666700  0.03333300  0.10000000       0.033
   0.03333300  0.01666700  0.05000000       0.033
   0.00000000  0.00000000  0.00000000       0.033
   0.03571400  0.00000000  0.03571400       0.033
   0.07142900  0.00000000  0.07142900       0.033
   0.10714300  0.00000000  0.10714300       0.033
   0.14285700  0.00000000  0.14285700       0.033
   0.17857100  0.00000000  0.17857100       0.033
   0.21428600  0.00000000  0.21428600       0.033
   0.25000000  0.00000000  0.25000000       0.033
   0.28571400  0.00000000  0.28571400       0.033
   0.32142900  0.00000000  0.32142900       0.033
   0.35714300  0.00000000  0.35714300       0.033
   0.39285700  0.00000000  0.39285700       0.033
   0.42857100  0.00000000  0.42857100       0.033
   0.46428600  0.00000000  0.46428600       0.033
   0.50000000  0.00000000  0.50000000       0.033

 position of ions in fractional coordinates (direct lattice)
   0.00000000  0.00000000  0.00000000
   0.25000000  0.25000000  0.25000000

 position of ions in cartesian coordinates  (Angst):
   0.00000000  0.00000000  0.00000000
   1.35750000  1.35750000  1.35750000

 k-point  1 :   0.5000 0.2500 0.7500  plane waves:     360
 k-point  2 :   0.4667 0.2333 0.7000  plane waves:     360
 k-point  3 :   0.4333 0.2167 0.6500  plane waves:     353
 k-point  4 :   0.4000 0.2000 0.6000  plane waves:     353
 k-point  5 :   0.3667 0.1833 0.5500  plane waves:     349
 k-point  6 :   0.3333 0.1667 0.5000  plane waves:     343
 k-point  7 :   0.3000 0.1500 0.4500  plane waves:     349
 k-point  8 :   0.2667 0.1333 0.4000  plane waves:     348
 k-point  9 :   0.2333 0.1167 0.3500  plane waves:     343
 k-point 10 :   0.2000 0.1000 0.3000  plane waves:     343
 k-point 11 :   0.1667 0.0833 0.2500  plane waves:     349
 k-point 12 :   0.1333 0.0667 0.2000  plane waves:     344
 k-point 13 :   0.1000 0.0500 0.1500  plane waves:     339
 k-point 14 :   0.0667 0.0333 0.1000  plane waves:     335
 k-point 15 :   0.0333 0.0167 0.0500  plane waves:     335
 k-point 16 :   0.0000 0.0000 0.0000  plane waves:     339
 k-point 17 :   0.0357 0.0000 0.0357  plane waves:     335
 k-point 18 :   0.0714 0.0000 0.0714  plane waves:     335
 k-point 19 :   0.1071 0.0000 0.1071  plane waves:     339
 k-point 20 :   0.1429 0.0000 0.1429  plane waves:     339
 k-point 21 :   0.1786 0.0000 0.1786  plane waves:     347
 k-point 22 :   0.2143 0.0000 0.2143  plane waves:     347
 k-point 23 :   0.2500 0.0000 0.2500  plane waves:     343
 k-point 24 :   0.2857 0.0000 0.2857  plane waves:     347
 k-point 25 :   0.3214 0.0000 0.3214  plane waves:     347
 k-point 26 :   0.3571 0.0000 0.3571  plane waves:     351
 k-point 27 :   0.3929 0.0000 0.3929  plane waves:     343
 k-point 28 :   0.4286 0.0000 0.4286  plane waves:     351
 k-point 29 :   0.4643 0.0000 0.4643  plane waves:     343
 k-point 30 :   0.5000 0.0000 0.5000  plane waves:     342

 maximum and minimum number of plane-waves per node :       360      335

 maximum number of plane-waves:       360
 maximum index in each direction:
   IXMAX=    4   IYMAX=    4   IZMAX=    4
   IXMIN=   -5   IYMIN=   -5   IZMIN=   -5

 WARNING: aliasing errors must be expected set NGX to  20 to avoid them
 WARNING: aliasing errors must be expected set NGY to  20 to avoid them
 WARNING: aliasing errors must be expected set NGZ to  20 to avoid them
 aliasing errors are usually negligible using standard VASP settings
 and one can safely disregard these warnings

 serial   3D FFT for wavefunctions
 parallel 3D FFT for charge:
    minimum data exchange during FFTs selected (reduces bandwidth)

 initial charge density was supplied:
 number of electron       7.9999993 magnetization
 keeping initial charge density in first step

 Maximum index for augmentation-charges          253 (set IRDMAX)

 First call to EWALD:  gamma=   0.518
 Maximum number of real-space cells 3x 3x 3
 Maximum number of reciprocal cells 3x 3x 3

 FEWALD executed in parallel

----------------------------------------- Iteration    1(   1)  ---------------------------------------

 eigenvalue-minimisations  :  1312
 total energy-change (2. order) :-0.7154418E+01  (-0.5073420E+02)
 number of electron       7.9999993 magnetization
 augmentation part        7.9999993 magnetization

 Free energy of the ion-electron system (eV)
  alpha Z        PSCENC =         2.37286213
  Ewald energy   TEWEN  =      -228.56352493
  -1/2 Hartree   DENC   =       -14.84277009
  -exchange  EXHF       =         0.00000000
  -V(xc)+E(xc)   XCENC  =       -17.96561312
  PAW double counting   =      1064.16681478    -1029.56818613
  entropy T*S    EENTRO =         0.00596081
  eigenvalues    EBANDS =        10.38642310
  atomic energy  EATOM  =       206.85361532
  free energy    TOTEN  =        -7.15441813 eV

  energy without entropy =       -7.16037894  energy(sigma->0) =       -7.15640507

[...]

----------------------------------------- Iteration    1(   4)  ---------------------------------------

 eigenvalue-minimisations  :  1264
 total energy-change (2. order) :-0.2309010E-06  (-0.2302789E-06)
 number of electron       7.9999993 magnetization
 augmentation part        7.9999993 magnetization

 Free energy of the ion-electron system (eV)
  alpha Z        PSCENC =         2.37286213
  Ewald energy   TEWEN  =      -228.56352493
  -1/2 Hartree   DENC   =       -14.84277009
  -exchange  EXHF       =         0.00000000
  -V(xc)+E(xc)   XCENC  =       -17.96561312
  PAW double counting   =      1064.16681478    -1029.56818613
  entropy T*S    EENTRO =         0.00655864
  eigenvalues    EBANDS =         9.99723547
  atomic energy  EATOM  =       206.85361532
  free energy    TOTEN  =        -7.54300794 eV

  energy without entropy =       -7.54956657  energy(sigma->0) =       -7.54519415

 average (electrostatic) potential at core
  the test charge radii are     0.9892
  (the norm of the test charge is              1.0000)
       1 -84.8894       2 -84.8894

 E-fermi :   5.9253     XC(G=0):  -9.6074     alpha+bet :-12.0925

 k-point   1 :       0.5000    0.2500    0.7500
  band No.  band energies     occupation
      1      -1.8713      2.00000
      2      -1.8713      2.00000
      3       1.8963      2.00000
      4       1.8963      2.00000
      5       9.9850     -0.00000
      6       9.9851     -0.00000
      7      10.7183     -0.00000
      8      10.7183     -0.00000
      9      16.3169      0.00000
     10      16.3169      0.00000
     11      18.7648      0.00000
     12      18.7648      0.00000
     13      22.1202      0.00000
     14      22.1202      0.00000
     15      24.2144      0.00000
     16      24.2243      0.00000

[...]

 k-point  30 :       0.5000    0.0000    0.5000
  band No.  band energies     occupation
      1      -2.0391      2.00000
      2      -2.0391      2.00000
      3       2.9240      2.00000
      4       2.9240      2.00000
      5       6.3992     -0.00406
      6       6.3993     -0.00406
      7      15.7756      0.00000
      8      15.7756      0.00000
      9      16.8302      0.00000
     10      16.8302      0.00000
     11      18.4122      0.00000
     12      18.4122      0.00000
     13      18.6263      0.00000
     14      18.6263      0.00000
     15      24.5744      0.00000
     16      24.5755      0.00000

 soft charge-density along one line, spin component           1
         0         1         2         3         4         5         6         7         8         9
 total charge-density along one line

------------------------ aborting loop because EDIFF is reached ----------------------------------------

  FORCE on cell =-STRESS in cart. coord.  units (eV):
  Direction    XX          YY          ZZ          XY          YZ          ZX
  Alpha Z     2.37286     2.37286     2.37286
  Ewald     -76.18788   -76.18788   -76.18788     0.00000    -0.00000     0.00000
  Hartree     5.64635     5.94841     5.68256    -0.11342     0.00001     0.00001
  E(xc)     -26.20139   -25.71478   -26.12726     0.07646     0.00000     0.00000
  Local     -36.08781   -26.64298   -34.66967     2.10254    -0.00000     0.00006
  n-local    82.80150    75.55284    81.53364    -1.13843     0.00001    -0.00003
  augment   -12.38857   -11.44653   -12.25891     0.11655    -0.00005    -0.00006
  Kinetic    63.34822    59.08761    65.13718     0.65613    -0.00001    -0.00001
  Fock        0.00000     0.00000     0.00000     0.00000     0.00000     0.00000
  Total       3.30329     2.96956     5.48253     1.69982    -0.00003    -0.00003
  in kB     132.22639   118.86743   219.45818    68.04168    -0.00137    -0.00111

 VOLUME and BASIS-vectors are now :
  energy-cutoff  :      245.70
  volume of cell :       40.03
      direct lattice vectors                 reciprocal lattice vectors
     0.000000000  2.715000000  2.715000000    -0.184162063  0.184162063  0.184162063
     2.715000000  0.000000000  2.715000000     0.184162063 -0.184162063  0.184162063
     2.715000000  2.715000000  0.000000000     0.184162063  0.184162063 -0.184162063

  length of vectors
     3.839589822  3.839589822  3.839589822     0.318978049  0.318978049  0.318978049

 FORCES acting on ions
    electron-ion (+dipol)            ewald-force                    non-local-force                 convergence-correction
   0.130E-03 0.116E-03 -.145E+01   -.476E-15 -.149E-14 0.391E-14   -.124E-03 -.116E-03 0.504E+00   -.806E-05 -.700E-05 0.274E+00
   -.130E-03 -.115E-03 0.145E+01   0.623E-15 0.106E-14 -.375E-14   0.124E-03 0.116E-03 -.504E+00   0.806E-05 0.700E-05 -.274E+00
   0.457E-08 0.127E-07 -.990E-08   0.147E-15 -.426E-15 0.164E-15   0.661E-08 -.938E-08 0.198E-07   -.999E-09 0.803E-09 0.392E-09

 POSITION                                       TOTAL-FORCE (eV/Angst)
      0.00000      0.00000      0.00000        -0.000002     -0.000008     -0.674526
      1.35750      1.35750      1.35750         0.000002      0.000008      0.674526
    total drift:                                0.000000      0.000000      0.000000

  FREE ENERGIE OF THE ION-ELECTRON SYSTEM (eV)
  free  energy   TOTEN  =        -7.54300794 eV

  energy  without entropy=       -7.54956657  energy(sigma->0) =       -7.54519415

 writing wavefunctions